Route 1: 0 94 66 100 74 82 27 71 81 49 0
Route 2: 0 35 7 88 69 31 34 5 16 0
Route 3: 0 96 48 77 58 57 59 0
Route 4: 0 64 86 28 60 91 99 13 26 0
Route 5: 0 80 47 85 90 29 9 43 39 25 98 46 75 0
Route 6: 0 15 44 78 92 73 54 32 19 79 0
Route 7: 0 65 87 6 20 53 1 24 40 93 3 70 50 0
Route 8: 0 45 62 2 11 4 95 67 33 55 36 14 12 0
Route 9: 0 18 51 84 41 97 17 0
Route 10: 0 56 76 72 30 37 42 23 21 8 68 0
Route 11: 0 63 89 52 83 38 61 22 10 0
